p tw 59 709
0 1
0 2
0 3
0 4
0 5
0 6
0 7
0 12
0 17
0 20
0 33
0 39
0 45
0 50
0 51
0 14
0 27
0 29
0 34
0 36
0 57
0 16
0 28
0 43
0 52
0 53
0 23
0 32
0 44
0 55
1 2
1 3
1 4
1 5
1 6
1 7
1 14
1 27
1 29
1 34
1 36
1 51
1 57
2 3
2 4
2 5
2 6
2 7
2 8
2 9
2 10
2 11
2 12
2 13
2 14
2 15
2 19
2 24
2 28
2 33
2 34
3 4
3 5
3 6
3 7
3 8
3 11
3 13
3 24
3 29
3 30
3 31
3 32
3 14
3 27
3 34
3 36
3 51
3 57
3 15
3 19
3 21
3 33
3 47
3 50
3 58
4 5
4 6
4 7
4 8
4 11
4 13
4 15
4 24
4 25
4 26
4 27
4 28
4 18
4 20
4 34
4 35
4 36
4 40
4 41
4 42
4 16
4 31
4 44
4 52
4 53
4 54
4 21
4 37
4 39
4 58
5 6
5 7
5 10
5 20
5 34
5 36
5 38
5 39
5 55
5 56
6 7
6 8
6 9
6 10
6 11
6 12
6 13
6 14
6 15
6 19
6 24
6 28
6 33
6 34
6 20
6 36
6 38
6 39
6 55
6 56
6 25
6 26
6 32
6 44
6 52
6 53
7 16
7 28
7 33
7 36
7 43
7 52
7 53
8 9
8 10
8 11
8 12
8 13
8 14
8 15
8 24
8 25
8 26
8 27
8 28
8 29
8 30
8 31
8 32
8 21
8 37
8 39
8 58
9 10
9 11
9 12
9 13
9 14
9 15
9 18
9 25
9 51
9 55
9 56
9 57
9 58
10 11
10 12
10 13
10 14
10 15
10 20
10 34
10 36
10 38
10 39
10 55
10 56
11 12
11 13
11 14
11 15
11 24
11 25
11 26
11 27
11 28
11 29
11 30
11 31
11 32
11 21
11 37
11 39
11 58
11 18
11 23
11 33
11 16
11 34
11 36
11 46
11 57
12 13
12 14
12 15
12 19
12 24
12 28
12 33
12 34
12 22
12 26
12 27
12 31
12 32
12 40
12 48
12 49
12 17
12 20
12 39
12 45
12 50
12 51
12 18
12 25
12 55
12 56
12 57
12 58
12 16
12 36
12 46
13 14
13 15
13 24
13 25
13 26
13 27
13 28
13 29
13 30
13 31
13 32
13 19
13 33
13 34
13 18
13 51
13 55
13 56
13 57
13 58
13 38
13 44
13 52
13 53
14 15
14 27
14 29
14 34
14 36
14 51
14 57
14 16
14 23
14 24
14 41
14 47
14 49
14 53
15 24
15 25
15 26
15 27
15 28
15 19
15 21
15 32
15 33
15 47
15 50
15 58
16 17
16 18
16 19
16 20
16 21
16 22
16 23
16 27
16 31
16 44
16 52
16 53
16 54
16 28
16 33
16 36
16 43
16 24
16 41
16 47
16 49
16 32
16 45
16 51
16 55
16 26
16 34
16 46
16 57
17 18
17 19
17 20
17 21
17 22
17 23
17 33
17 39
17 45
17 50
17 51
18 19
18 20
18 21
18 22
18 23
18 24
18 34
18 35
18 36
18 40
18 41
18 42
18 38
18 43
18 44
18 45
18 46
18 47
18 25
18 51
18 55
18 56
18 57
18 58
18 26
18 28
18 31
18 33
19 20
19 21
19 22
19 23
19 24
19 28
19 33
19 34
19 30
19 35
19 36
19 37
19 38
19 39
19 32
19 47
19 50
19 58
20 21
20 22
20 23
20 30
20 33
20 34
20 35
20 36
20 37
20 38
20 39
20 24
20 40
20 41
20 42
20 45
20 50
20 51
20 55
20 56
20 32
20 43
20 44
21 22
21 23
21 38
21 43
21 44
21 45
21 46
21 47
21 28
21 37
21 39
21 58
21 24
21 32
21 33
21 50
22 23
22 26
22 27
22 31
22 32
22 33
22 40
22 48
22 49
23 24
23 41
23 47
23 49
23 53
23 25
23 26
23 28
23 31
23 33
23 58
23 32
23 43
23 44
23 45
23 51
23 55
24 25
24 26
24 27
24 28
24 29
24 30
24 31
24 32
24 33
24 34
24 35
24 36
24 40
24 41
24 42
24 47
24 49
24 53
24 50
24 58
25 26
25 27
25 28
25 51
25 55
25 56
25 57
25 58
25 32
25 38
25 44
25 52
25 53
25 31
25 33
26 27
26 28
26 31
26 32
26 33
26 40
26 48
26 49
26 38
26 44
26 52
26 53
26 56
26 58
26 34
26 36
26 46
26 57
27 28
27 31
27 32
27 33
27 40
27 48
27 49
27 44
27 52
27 53
27 54
27 29
27 34
27 36
27 51
27 57
28 33
28 34
28 36
28 43
28 52
28 53
28 37
28 39
28 58
28 31
28 46
28 57
29 30
29 31
29 32
29 34
29 36
29 51
29 57
30 31
30 32
30 33
30 34
30 35
30 36
30 37
30 38
30 39
31 32
31 33
31 40
31 48
31 49
31 44
31 52
31 53
31 54
31 58
32 33
32 40
32 48
32 49
32 38
32 44
32 52
32 53
32 56
32 43
32 45
32 51
32 55
32 47
32 50
32 58
33 34
33 35
33 36
33 37
33 38
33 39
33 40
33 48
33 49
33 45
33 50
33 51
33 43
33 52
33 53
33 58
33 47
34 35
34 36
34 37
34 38
34 39
34 40
34 41
34 42
34 55
34 56
34 51
34 57
34 46
35 36
35 37
35 38
35 39
35 40
35 41
35 42
36 37
36 38
36 39
36 40
36 41
36 42
36 55
36 56
36 51
36 57
36 43
36 52
36 53
36 46
37 38
37 39
37 58
38 39
38 43
38 44
38 45
38 46
38 47
38 55
38 56
38 52
38 53
39 45
39 50
39 51
39 55
39 56
39 58
40 41
40 42
40 48
40 49
41 42
41 47
41 49
41 53
43 44
43 45
43 46
43 47
43 52
43 53
43 51
43 55
44 45
44 46
44 47
44 52
44 53
44 54
44 56
44 51
44 55
45 46
45 47
45 50
45 51
45 55
46 47
46 57
47 49
47 53
47 50
47 58
48 49
49 53
50 51
50 58
51 57
51 55
51 56
51 58
52 53
52 54
52 56
53 54
53 56
55 56
55 57
55 58
56 57
56 58
57 58
